# (written by ASE)
clear
variable dump_file string "/Users/austinfox/Google_Drive/_CompSciCourse/Final_Proj/Examples/trj_lammps000001qCxCst"
variable data_file string "/Users/austinfox/Google_Drive/_CompSciCourse/Final_Proj/Examples/data_lammps000001hB3WqR"
units metal 
boundary p p p 
atom_modify sort 0 0.0 

read_data /Users/austinfox/Google_Drive/_CompSciCourse/Final_Proj/Examples/data_lammps000001hB3WqR

### interactions 
pair_style lj/cut 2.5 
pair_coeff * * 1 1 
mass * 1.0 

### run
fix fix_nve all nve
dump dump_all all custom 1 /Users/austinfox/Google_Drive/_CompSciCourse/Final_Proj/Examples/trj_lammps000001qCxCst id type x y z vx vy vz fx fy fz
thermo_style custom step temp press cpu pxx pyy pzz pxy pxz pyz ke pe etotal vol lx ly lz atoms
thermo_modify flush yes
thermo 1
run 0
print "__end_of_ase_invoked_calculation__"
log /dev/stdout
